g9 1 1 0 14 20081213 0 4 0 240	# problem tmp
 15 14 1 0 3	# vars, constraints, objectives, ranges, eqns
 12 0 2 9	# nonlinear constrs, objs; ccons: lin, nonlin
 0 0	# network constraints: nonlinear, linear
 14 0 0	# nonlinear vars in constraints, objectives, both
 0 0 0 1	# linear network variables; functions; arith, flags
 0 0 0 0 0	# discrete variables: binary, integer, nonlinear (b,c,o)
 52 1	# nonzeros in Jacobian, gradients
 0 0	# max name lengths: constraints, variables
 0 0 0 0 0	# common exprs: b,c,o,c1,o1
C0
o39
v7
C1
o39
v7
C2
o5
o0
n0.3333333333333333
o0
o2
n0.3333333333333333
o5
o2
v4
o0
n1
v9
n0.19999999999999996
o2
n0.3333333333333333
o5
o2
v5
o0
n1
v10
n0.19999999999999996
n5.000000000000001
C3
o2
v3
v8
C4
o16
o2
o5
o3
v6
o2
v4
o0
n1
v9
n0.8
v2
C5
o16
o2
o5
o3
v6
o2
v5
o0
n1
v10
n0.8
v2
C6
o54
3
o2
n-0.5
o2
v0
v4
o2
n-0.5
o2
v1
v5
o16
o2
o5
v6
n0.8
v2
C7
o0
o2
n-0.5
o2
v0
v4
o2
n-0.5
o2
v1
v5
C8
o1
o16
o2
o2
v1
v5
v10
o2
o2
v0
v4
v9
C9
o0
o2
n3
o2
v6
v2
n-2
C10
o16
o2
v11
v12
C11
o16
o2
v11
v13
C12
n-1
C13
n-0.5
O0 1
n0
x13
0 1
1 1
2 1
4 1
5 1
6 1
7 1
8 1
9 0.4
10 0.4
11 0
12 0.5
13 0.5
r
5 1 1
5 1 2
5 1 3
4 0
5 1 5
5 1 6
4 -2
5 1 8
4 0
5 1 7
5 1 10
5 1 11
5 1 4
5 1 12
b
2 0
2 0
2 0
2 0
2 0
2 0
2 0
2 0
2 1
2 0
2 0
2 0
0 0.4 0.6
0 0.4 0.6
2 0.5
k14
4
8
12
13
19
25
30
34
36
40
44
46
47
48
J0 2
4 -1
7 0
J1 2
5 -1
7 0
J2 5
4 0
5 0
6 -1
9 0
10 0
J3 3
3 0
8 0
14 -1
J4 5
0 1
2 0
4 0
6 0
9 0
J5 5
1 1
2 0
5 0
6 0
10 0
J6 7
0 0
1 0
2 0
4 0
5 0
6 0
14 -1
J7 5
0 0
1 0
4 0
5 0
7 1
J8 7
0 0
1 0
4 0
5 0
9 0
10 0
14 1
J9 3
2 0
6 0
7 -1
J10 3
9 1
11 0
12 0
J11 3
10 1
11 0
13 0
J12 1
8 1
J13 1
14 1
G0 1
2 1
